NAME : rnd32_50.tsp
TYPE : TSP
DIMENSION : 50
EDGE_WEIGHT_TYPE : EUC_2D
NODE_COORD_SECTION
1 691 142
2 108 148
3 760 378
4 631 871
5 348 166
6 315 699
7 589 647
8 251 812
9 281 997
10 726 887
11 835 671
12 394 248
13 591 481
14 127 339
15 580 427
16 919 808
17 644 677
18 341 101
19 831 47
20 426 96
21 451 28
22 800 959
23 560 299
24 707 908
25 201 7
26 702 628
27 572 876
28 760 394
29 88 845
30 296 19
31 273 832
32 87 679
33 4 216
34 349 817
35 843 506
36 615 376
37 109 460
38 88 793
39 210 312
40 17 759
41 669 543
42 948 23
43 994 285
44 223 250
45 787 118
46 650 660
47 584 123
48 635 858
49 313 284
50 432 943
